
Presolve eliminates 12528 constraints and 11816 variables.
Adjusted problem:
29384 variables:
	28984 binary variables
	400 linear variables
29582 constraints, all linear; 242852 nonzeros
	902 equality constraints
	28680 inequality constraints
1 linear objective; 28584 nonzeros.

Gurobi 9.1.2: mipgap 0.01
outlev 1
timelim 3600
Gurobi Optimizer version 9.1.2 build v9.1.2rc0 (linux64)
Thread count: 4 physical cores, 4 logical processors, using up to 4 threads
Optimize a model with 29582 rows, 29384 columns and 242852 nonzeros
Model fingerprint: 0x8641bf63
Variable types: 400 continuous, 28984 integer (28984 binary)
Coefficient statistics:
  Matrix range     [3e-02, 4e+02]
  Objective range  [4e+01, 7e+03]
  Bounds range     [1e+00, 4e+02]
  RHS range        [1e+00, 4e+02]
Presolve removed 800 rows and 0 columns
Presolve time: 0.99s
Presolved: 28782 rows, 29384 columns, 158568 nonzeros
Variable types: 400 continuous, 28984 integer (28984 binary)

Deterministic concurrent LP optimizer: primal and dual simplex
Showing first log only...


Root simplex log...

Iteration    Objective       Primal Inf.    Dual Inf.      Time
   16062    4.5451645e+03   0.000000e+00   4.547689e+03      5s
Concurrent spin time: 0.00s

Solved with dual simplex

Root relaxation: objective 4.358367e+03, 10404 iterations, 3.96 seconds

    Nodes    |    Current Node    |     Objective Bounds      |     Work
 Expl Unexpl |  Obj  Depth IntInf | Incumbent    BestBd   Gap | It/Node Time

     0     0 4358.36735    0  355          - 4358.36735      -     -    6s
H    0     0                    4704.0000000 4358.36735  7.35%     -   15s
     0     0 4358.36735    0  404 4704.00000 4358.36735  7.35%     -   16s
H    0     0                    4689.0000000 4358.36735  7.05%     -   34s
     0     0 4358.89873    0  413 4689.00000 4358.89873  7.04%     -   39s
     0     0 4358.89873    0  434 4689.00000 4358.89873  7.04%     -   40s
     0     0 4358.89873    0  339 4689.00000 4358.89873  7.04%     -   42s
     0     0 4358.89873    0  376 4689.00000 4358.89873  7.04%     -   42s
     0     0 4359.28413    0  416 4689.00000 4359.28413  7.03%     -   44s
     0     0 4363.47154    0  462 4689.00000 4363.47154  6.94%     -   45s
     0     0 4363.47154    0  480 4689.00000 4363.47154  6.94%     -   45s
     0     0 4382.35941    0  417 4689.00000 4382.35941  6.54%     -   50s
H    0     0                    4685.0000000 4382.35941  6.46%     -   64s
     0     0 4384.27586    0  467 4685.00000 4384.27586  6.42%     -   69s
     0     0 4384.27586    0  396 4685.00000 4384.27586  6.42%     -   70s
     0     0 4389.55975    0  396 4685.00000 4389.55975  6.31%     -   73s
     0     0 4389.55975    0  377 4685.00000 4389.55975  6.31%     -   73s
     0     0 4390.98503    0  463 4685.00000 4390.98503  6.28%     -   77s
     0     0 4392.83025    0  532 4685.00000 4392.83025  6.24%     -   78s
     0     0 4392.83025    0  502 4685.00000 4392.83025  6.24%     -   79s
     0     0 4396.68772    0  498 4685.00000 4396.68772  6.15%     -   83s
     0     0 4397.29570    0  454 4685.00000 4397.29570  6.14%     -   84s
     0     0 4397.29570    0  447 4685.00000 4397.29570  6.14%     -   84s
     0     0 4398.73118    0  436 4685.00000 4398.73118  6.11%     -   87s
     0     0 4398.73118    0  412 4685.00000 4398.73118  6.11%     -   88s
     0     0 4398.73445    0  464 4685.00000 4398.73445  6.11%     -   91s
     0     0 4399.68229    0  474 4685.00000 4399.68229  6.09%     -   92s
     0     0 4399.68229    0  417 4685.00000 4399.68229  6.09%     -   93s
     0     0 4400.66667    0  418 4685.00000 4400.66667  6.07%     -   95s
     0     0 4400.66667    0  419 4685.00000 4400.66667  6.07%     -   96s
     0     0 4400.66667    0  396 4685.00000 4400.66667  6.07%     -   98s
     0     0 4400.66667    0  271 4685.00000 4400.66667  6.07%     -  139s
     0     0 4402.19608    0  372 4685.00000 4402.19608  6.04%     -  170s
     0     0 4402.19608    0  399 4685.00000 4402.19608  6.04%     -  182s
H    0     0                    4661.0000000 4402.19608  5.55%     -  200s
     0     0 4402.19608    0  481 4661.00000 4402.19608  5.55%     -  201s
     0     0 4402.19608    0  368 4661.00000 4402.19608  5.55%     -  202s
     0     0 4402.19608    0  405 4661.00000 4402.19608  5.55%     -  203s
     0     0 4402.19608    0  477 4661.00000 4402.19608  5.55%     -  204s
     0     0 4402.19608    0  397 4661.00000 4402.19608  5.55%     -  205s
     0     0 4402.19608    0  435 4661.00000 4402.19608  5.55%     -  206s
     0     0 4402.19608    0  423 4661.00000 4402.19608  5.55%     -  207s
     0     0 4402.19608    0  432 4661.00000 4402.19608  5.55%     -  209s
H    0     0                    4653.0000000 4402.19608  5.39%     -  222s
     0     0 4402.19608    0  376 4653.00000 4402.19608  5.39%     -  226s
     0     0 4402.19608    0  384 4653.00000 4402.19608  5.39%     -  230s
     0     0 4402.19608    0  359 4653.00000 4402.19608  5.39%     -  231s
     0     0 4402.19608    0  301 4653.00000 4402.19608  5.39%     -  235s
     0     0 4402.19608    0  348 4653.00000 4402.19608  5.39%     -  236s
     0     0 4402.19608    0  331 4653.00000 4402.19608  5.39%     -  236s
     0     0 4402.19608    0  379 4653.00000 4402.19608  5.39%     -  237s
     0     0 4402.19608    0  352 4653.00000 4402.19608  5.39%     -  238s
     0     0 4402.19608    0  412 4653.00000 4402.19608  5.39%     -  239s
     0     0 4402.19608    0  291 4653.00000 4402.19608  5.39%     -  255s
     0     2 4402.19608    0  285 4653.00000 4402.19608  5.39%     -  287s
     1     4 4402.19608    1  335 4653.00000 4402.19608  5.39%  1326  294s
     3     8 4402.19608    2  394 4653.00000 4402.19608  5.39%   490  299s
     7    12 4402.19608    3  440 4653.00000 4402.19608  5.39%   318  310s
    23    29 4402.19608    6  423 4653.00000 4402.19608  5.39%   188  315s
H   28    33                    4651.0000000 4402.19608  5.35%   166  365s
H   29    33                    4642.0000000 4402.19608  5.17%   164  365s
H   30    33                    4641.0000000 4402.19608  5.15%   161  365s
    55    89 4402.19608   11  420 4641.00000 4402.19608  5.15%   110  381s
    88   187 4402.19608   17  378 4641.00000 4402.19608  5.15%   100  402s
   186   358 4402.69057   37  338 4641.00000 4402.19608  5.15%  92.0  419s
   357   481 4407.67918   67  270 4641.00000 4402.19608  5.15%  75.1  433s
   480   632 4416.79852   80  283 4641.00000 4402.19608  5.15%  72.3  447s
   631   779 4427.52844   98  272 4641.00000 4402.19608  5.15%  66.6  458s
   778   901 4434.06079  132  275 4641.00000 4402.19608  5.15%  63.4  471s
   901  1023 4439.41053  158  275 4641.00000 4402.19608  5.15%  63.1  484s
  1023  1211 4442.98049  195  290 4641.00000 4402.19608  5.15%  62.9  497s
  1214  1424 4448.11055  253  242 4641.00000 4402.19608  5.15%  58.9  510s
  1428  1644 4450.48257  340  222 4641.00000 4402.19608  5.15%  55.0  521s
  1649  1858 4516.27621  394  213 4641.00000 4402.19608  5.15%  50.9  534s
  1863  2058 4528.51337  433  188 4641.00000 4402.19608  5.15%  48.1  546s
  2070  2304 4559.27267  501  220 4641.00000 4402.19608  5.15%  47.1  560s
  2319  2518 4571.15150  557  236 4641.00000 4402.19608  5.15%  45.1  572s
  2549  2716 4402.19608    7  335 4641.00000 4402.19608  5.15%  44.1  585s
  2748  2720 4402.40625   19  247 4641.00000 4402.19608  5.15%  44.4  636s
H 2749  2717                    4635.0000000 4402.19608  5.02%  44.3  636s
  2752  2907 4402.40625   20  259 4635.00000 4402.19608  5.02%  44.3  648s
  2966  3100 4402.75971   32  359 4635.00000 4402.19608  5.02%  45.2  661s
  3164  3251 4404.09985   43  321 4635.00000 4402.19608  5.02%  44.6  675s
  3331  3283 4410.32286   60  320 4635.00000 4402.19608  5.02%  46.5  706s
H 3338  3024                    4604.0000000 4402.19608  4.38%  46.6  706s
  3363  3180 4410.63245   61  313 4604.00000 4402.19608  4.38%  46.7  720s
  3519  3405 4416.19927   70  308 4604.00000 4402.19608  4.38%  48.6  736s
  3744  3691 4427.07637  105  288 4604.00000 4402.19608  4.38%  49.6  752s
  4030  3970 4433.91074  171  285 4604.00000 4402.19608  4.38%  49.5  768s
  4333  4169 4455.33952  212  287 4604.00000 4402.19608  4.38%  49.2  784s
  4533  4170 4402.95767   39  271 4604.00000 4402.19608  4.38%  50.6  831s
  4535  4171 4427.73223   77  354 4604.00000 4402.19608  4.38%  50.6  842s
  4536  4172 4414.48381   76  387 4604.00000 4402.19608  4.38%  50.6  855s
  4538  4173 4425.02137  206  475 4604.00000 4402.19608  4.38%  50.5  863s
  4539  4174 4426.59494   92  491 4604.00000 4402.19608  4.38%  50.5  865s
  4541  4175 4404.50694   51  439 4604.00000 4402.19608  4.38%  50.5  870s
  4542  4176 4582.55397  690  406 4604.00000 4402.19608  4.38%  50.5  875s
H 4542  3967                    4602.0000000 4402.19608  4.34%  50.5  883s
H 4543  3769                    4601.0000000 4402.19608  4.32%  50.5  883s
  4544  3769 4523.29468  424  470 4601.00000 4402.19608  4.32%  50.5  886s
  4546  3771 4545.56144  518  449 4601.00000 4402.19608  4.32%  50.4  895s
  4548  3772 4413.25148  120  558 4601.00000 4402.19608  4.32%  50.4  901s
  4550  3773 4573.26228  638  510 4601.00000 4402.19608  4.32%  50.4  906s
  4552  3775 4410.98350   65  526 4601.00000 4402.19608  4.32%  50.4  910s
  4555  3777 4545.27730  516  562 4601.00000 4402.19608  4.32%  50.3  921s
  4556  3777 4438.10023  149  668 4601.00000 4402.19608  4.32%  50.3  925s
  4558  3779 4446.57501  119  721 4601.00000 4402.19608  4.32%  50.3  932s
  4559  3779 4415.13213   70  715 4601.00000 4402.19608  4.32%  50.3  935s
  4560  3780 4429.90212  197  661 4601.00000 4402.19608  4.32%  50.3  944s
  4561  3781 4453.38529  142  710 4601.00000 4402.19608  4.32%  50.3  948s
  4562  3781 4498.44141  256  741 4601.00000 4402.19608  4.32%  50.3  960s
  4563  3782 4403.37054   30  820 4601.00000 4402.19608  4.32%  50.3  970s
  4565  3783 4418.82801   82  734 4601.00000 4402.19608  4.32%  50.2  976s
  4566  3784 4537.66111  440  710 4601.00000 4402.19608  4.32%  50.2  980s
  4568  3785 4404.06398   24  731 4601.00000 4402.19608  4.32%  50.2  992s
  4569  3786 4426.69337  123  632 4601.00000 4402.19608  4.32%  50.2 1004s
  4570  3787 4434.23296  142  693 4601.00000 4402.19608  4.32%  50.2 1008s
  4571  3787 4433.40543  164  647 4601.00000 4402.19608  4.32%  50.2 1017s
  4572  3788 4449.78259  194  751 4601.00000 4402.19608  4.32%  50.2 1025s
H 4572  3598                    4597.0000000 4402.19608  4.24%  50.2 1039s
H 4573  3418                    4586.0000000 4402.19608  4.01%  50.1 1043s
  4575  3419 4560.70319  575  680 4586.00000 4402.19608  4.01%  50.1 1049s
  4576  3420 4463.00757  215  868 4586.00000 4402.19608  4.01%  50.1 1056s
  4577  3420 4426.51081  268  825 4586.00000 4402.19608  4.01%  50.1 1060s
  4578  3421 4485.80053  327  736 4586.00000 4402.19608  4.01%  50.1 1067s
H 4578  3249                    4581.0000000 4402.19608  3.90%  50.1 1083s
  4580  3250 4404.39319   29  807 4581.00000 4402.19608  3.90%  50.1 1092s
  4581  3251 4514.52727  299  749 4581.00000 4402.19608  3.90%  50.1 1099s
H 4581  3088                    4570.0000000 4402.19608  3.67%  50.1 1104s
  4582  3089 4416.99026   62  872 4570.00000 4402.19608  3.67%  50.1 1109s
  4583  3089 4428.20622  132  843 4570.00000 4402.19608  3.67%  50.0 1114s
  4584  3090 4402.19608   22  861 4570.00000 4402.19608  3.67%  50.0 1125s
  4585  3091 4478.64200  261  899 4570.00000 4402.19608  3.67%  50.0 1167s
  4586  3091 4407.89583   33  666 4570.00000 4402.19608  3.67%  50.0 1177s
  4587  3092 4570.00000  644  666 4570.00000 4403.00000  3.65%  50.0 1280s
H 4587  2939                    4564.0000000 4403.00000  3.53%  57.9 1371s
  4588  2941 4403.00000   12  535 4564.00000 4403.00000  3.53%  58.0 1444s
  4590  2944 4403.00000   13  629 4564.00000 4403.00000  3.53%  58.1 1551s
  4594  2947 4403.00000   14  651 4564.00000 4403.00000  3.53%  58.6 1581s
  4598  2949 4403.00000   14  726 4564.00000 4403.00000  3.53%  59.3 1594s
  4602  2952 4403.00000   15  639 4564.00000 4403.00000  3.53%  60.5 1599s
  4606  2955 4403.00000   15  563 4564.00000 4403.00000  3.53%  60.9 1605s
  4610  2958 4403.00000   16  546 4564.00000 4403.00000  3.53%  61.3 1614s
  4615  2961 4403.00000   16  565 4564.00000 4403.00000  3.53%  61.6 1635s
H 4616  2812                    4561.0000000 4403.00000  3.46%  61.6 1635s
  4619  2817 4403.69979   17  550 4561.00000 4403.00000  3.46%  61.8 1643s
  4625  2821 4403.00000   17  716 4561.00000 4403.00000  3.46%  62.4 1650s
  4631  2825 4407.78201   18  608 4561.00000 4403.00000  3.46%  63.2 1658s
  4637  2848 4403.69979   18  528 4561.00000 4403.00000  3.46%  63.7 1705s
  4662  2870 4404.61790   21  524 4561.00000 4403.00000  3.46%  65.4 1730s
H 4692  2723                    4559.0000000 4403.00000  3.42%  68.7 1766s
H 4693  2590                    4558.0000000 4403.00000  3.40%  68.8 1766s
H 4694  2462                    4546.0000000 4403.00000  3.15%  68.9 1766s
  4696  2504 4404.83456   26  459 4546.00000 4403.00000  3.15%  69.0 1799s
  4738  2502 4406.00901   31  419 4546.00000 4403.00000  3.15%  71.7 1824s
  4750  2557 4406.85638   33  461 4546.00000 4403.00000  3.15%  72.3 1850s
  4809  2570 4413.64340   38  474 4546.00000 4403.00000  3.15%  74.9 1872s
  4842  2608 4414.12707   42  551 4546.00000 4403.00000  3.15%  76.7 1893s
  4891  2629 4412.98836   45  571 4546.00000 4403.00000  3.15%  78.1 1914s
  4928  2665 4413.37495   49  513 4546.00000 4403.00000  3.15%  79.5 1933s
  4977  2653 4413.50352   55  493 4546.00000 4403.00000  3.15%  81.0 2053s
  4981  2667 4415.36468   55  414 4546.00000 4403.00000  3.15%  81.2 2103s
H 4983  2546                    4545.0000000 4403.00000  3.12%  81.2 2104s
H 4985  2431                    4535.0000000 4403.00000  2.91%  81.2 2104s
  4996  2510 4413.79082   56  465 4535.00000 4403.00000  2.91%  81.3 2126s
  5078  2552 4415.49437   65  444 4535.00000 4403.00000  2.91%  83.4 2147s
  5148  2601 4415.76268   75  397 4535.00000 4403.00000  2.91%  85.0 2167s
  5220  2638 4417.39922   85  414 4535.00000 4403.00000  2.91%  86.7 2189s
  5281  2670 4417.72004   90  417 4535.00000 4403.00000  2.91%  88.1 2208s
  5333  2719 4418.48401   96  413 4535.00000 4403.00000  2.91%  89.7 2224s
  5400  2787 4418.80734  102  472 4535.00000 4403.00000  2.91%  91.1 2243s
  5491  2853 4422.65881  110  432 4535.00000 4403.00000  2.91%  92.5 2268s
  5587  2908 4419.72361  117  431 4535.00000 4403.00000  2.91%  93.8 2288s
  5674  2947 4421.17144  125  433 4535.00000 4403.00000  2.91%  95.5 2308s
  5742  3006 4421.91520  132  440 4535.00000 4403.00000  2.91%  97.4 2330s
  5825  3074 4436.87136  137  415 4535.00000 4403.00000  2.91%  99.2 2356s
  5921  3071 4423.05697  144  440 4535.00000 4403.00000  2.91%   101 2386s
H 5930  2959                    4534.0000000 4403.00000  2.89%   101 2387s
  5950  3026 4423.21513  147  446 4534.00000 4403.00000  2.89%   101 2420s
  6023  3097 4433.33561  154  406 4534.00000 4403.00000  2.89%   104 2448s
  6122  3155 4424.23214  161  428 4534.00000 4403.00000  2.89%   106 2498s
  6236  3205 4424.92505  169  409 4534.00000 4403.00000  2.89%   108 2532s
  6325  3262 4425.38290  177  406 4534.00000 4403.00000  2.89%   111 2571s
  6411  3337 4426.41020  185  418 4534.00000 4403.00000  2.89%   114 2609s
  6527  3371 4426.77341  194  400 4534.00000 4403.00000  2.89%   117 2673s
  6646  3439 4428.11560  203  398 4534.00000 4403.00000  2.89%   120 2714s
  6754  3471 4429.02348  211  432 4534.00000 4403.00000  2.89%   122 2749s
H 6761  3365                    4533.0000000 4403.00000  2.87%   123 2749s
  6822  3504 4429.47943  216  429 4533.00000 4403.00000  2.87%   124 2878s
  6845  3496 4403.85956   38  548 4533.00000 4403.00000  2.87%   124 2880s
  6981  3638 4443.60515  227  368 4533.00000 4403.00000  2.87%   126 2924s
  7168  3800 4441.00555  237  422 4533.00000 4403.00000  2.87%   127 2962s
  7392  3954 4431.82901  250  408 4533.00000 4403.00000  2.87%   128 3019s
  7624  4121 4432.25874  262  382 4533.00000 4403.00000  2.87%   129 3073s
H 7868  3964                    4532.0000000 4403.00000  2.85%   129 3122s
H 7870  3867                    4530.0000000 4403.00000  2.80%   129 3123s
H 7872  3777                    4529.0000000 4403.00000  2.78%   129 3123s
  7892  4003 4433.11969  277  417 4529.00000 4403.00000  2.78%   129 3160s
  8125  4174 4433.92382  289  408 4529.00000 4403.00000  2.78%   130 3202s
  8380  4186 4452.01001  302  378 4529.00000 4403.00000  2.78%   132 3252s
  8529  4291 4435.84450  316  413 4529.00000 4403.00000  2.78%   135 3297s
  8689  4250 4437.42424  334  364 4529.00000 4403.00000  2.78%   138 3330s
H 8698  4124                    4520.0000000 4403.00000  2.59%   138 3331s
  8701  4362 4439.74875  335  385 4520.00000 4403.00000  2.59%   138 3381s
  8940  4505 4457.97320  350  351 4520.00000 4403.00000  2.59%   140 3479s
  9163  4536 4463.36661  377  353 4520.00000 4403.00000  2.59%   141 3522s
  9268  4709 4475.95457  386  336 4520.00000 4403.00000  2.59%   142 3572s
  9492  4697 4464.60430  412  348 4520.00000 4403.00000  2.59%   144 3600s
H 9494  4679                    4516.0000000 4403.00000  2.50%   144 3600s

Cutting planes:
  Gomory: 116
  Implied bound: 121
  Projected implied bound: 29
  Clique: 8
  MIR: 169
  Flow cover: 148
  Zero half: 151
  RLT: 22
  Relax-and-lift: 141

Explored 9500 nodes (1409060 simplex iterations) in 3603.19 seconds
Thread count was 4 (of 4 available processors)

Solution count 10: 4516 4520 4529 ... 4546

Time limit reached
Best objective 4.516000000000e+03, best bound 4.403000000000e+03, gap 2.5022%
Gurobi 9.1.2: time limit with a feasible solution; objective 4516
1409060 simplex iterations
9500 branch-and-cut nodes
No basis.
No dual variables returned.
sum{(i,j) in Arcs, k in K: i != j} c[i,j]*x[i,j,k] + sum{(i,j) in Arcs, 
  k in K} cto[i,j]*x[i,j,k] = 4516

sum{(i,j) in Arcs, k in K: i != j} c[i,j]*x[i,j,k] = 353

sum{(i,j) in Arcs, k in K: i != j} cto[i,j]*x[i,j,k] = 4163

COST = 4516

x  1 50 costo: 3.00, cto: 39.00, dano: 0.230000
x  3 81 costo: 4.00, cto: 39.00, dano: 0.150000
x  6 16 costo: 5.00, cto: 41.00, dano: 0.000000
x  8 46 costo: 3.00, cto: 43.00, dano: 0.000000
x  9  1 costo: 5.00, cto: 41.00, dano: 0.000000
x 16 61 costo: 1.00, cto: 38.00, dano: 0.070000
x 18 37 costo: 6.00, cto: 41.00, dano: 0.000000
x 20 30 costo: 2.00, cto: 39.00, dano: 0.000000
x 30 70 costo: 2.00, cto: 39.00, dano: 0.080000
x 33 34 costo: 3.00, cto: 40.00, dano: 0.000000
x 34 78 costo: 1.00, cto: 39.00, dano: 0.000000
x 35 65 costo: 3.00, cto: 40.00, dano: 0.000000
x 36 64 costo: 8.00, cto: 42.00, dano: 0.350000
x 37 42 costo: 3.00, cto: 39.00, dano: 0.130000
x 42 43 costo: 3.00, cto: 43.00, dano: 0.000000
x 43 57 costo: 5.00, cto: 40.00, dano: 0.200000
x 46 36 costo: 4.00, cto: 40.00, dano: 0.000000
x 50  0 costo: 5.00, cto: 41.00, dano: 0.000000
x 52 18 costo: 2.00, cto: 39.00, dano: 0.120000
x 57 96 costo: 6.00, cto: 45.00, dano: 0.000000
x 61  8 costo: 6.00, cto: 41.00, dano: 0.000000
x 63 71 costo: 8.00, cto: 43.00, dano: 0.000000
x 64 63 costo: 5.00, cto: 44.00, dano: 0.000000
x 65 66 costo: 3.00, cto: 40.00, dano: 0.000000
x 66 20 costo: 2.00, cto: 43.00, dano: 0.000000
x 70 90 costo: 5.00, cto: 40.00, dano: 0.200000
x 71 35 costo: 1.00, cto: 39.00, dano: 0.000000
x 76  3 costo: 3.00, cto: 39.00, dano: 0.230000
x 78 79 costo: 1.00, cto: 39.00, dano: 0.000000
x 79 76 costo: 3.00, cto: 40.00, dano: 0.170000
x 81  9 costo: 2.00, cto: 39.00, dano: 0.000000
x 89 52 costo: 2.00, cto: 43.00, dano: 0.000000
x 90 33 costo: 6.00, cto: 42.00, dano: 0.000000
x 96  6 costo: 1.00, cto: 38.00, dano: 0.000000
x  0 89 costo: 2.00, cto: 39.00, dano: 0.000000
x  2 40 costo: 2.00, cto: 43.00, dano: 0.000000
x  4 25 costo: 3.00, cto: 40.00, dano: 0.000000
x  7 82 costo: 1.00, cto: 42.00, dano: 0.000000
x 10 27 costo: 6.00, cto: 41.00, dano: 0.000000
x 11 10 costo: 4.00, cto: 40.00, dano: 0.180000
x 12 68 costo: 2.00, cto: 39.00, dano: 0.000000
x 13 84 costo: 5.00, cto: 41.00, dano: 0.000000
x 17 45 costo: 2.00, cto: 39.00, dano: 0.000000
x 21 73 costo: 1.00, cto: 38.00, dano: 0.000000
x 25 55 costo: 3.00, cto: 38.00, dano: 0.120000
x 26 12 costo: 4.00, cto: 39.00, dano: 0.270000
x 27  0 costo: 4.00, cto: 39.00, dano: 0.200000
x 40 58 costo: 2.00, cto: 38.00, dano: 0.070000
x 45 83 costo: 2.00, cto: 39.00, dano: 0.000000
x 47 48 costo: 2.00, cto: 39.00, dano: 0.000000
x 48 11 costo: 4.00, cto: 40.00, dano: 0.000000
x 54  4 costo: 3.00, cto: 39.00, dano: 0.000000
x 55 72 costo: 5.00, cto: 41.00, dano: 0.000000
x 58 13 costo: 1.00, cto: 39.00, dano: 0.000000
x 68 54 costo: 6.00, cto: 40.00, dano: 0.390000
x 72 21 costo: 1.00, cto: 38.00, dano: 0.000000
x 73  2 costo: 2.00, cto: 39.00, dano: 0.000000
x 82 47 costo: 4.00, cto: 40.00, dano: 0.180000
x 83  7 costo: 4.00, cto: 40.00, dano: 0.000000
x 84 17 costo: 3.00, cto: 39.00, dano: 0.230000
x  0 26 costo: 3.00, cto: 40.00, dano: 0.000000
x 19 62 costo: 4.00, cto: 39.00, dano: 0.150000
x 28 77 costo: 4.00, cto: 40.00, dano: 0.000000
x 31 69 costo: 3.00, cto: 43.00, dano: 0.000000
x 32 49 costo: 12.00, cto: 43.00, dano: 0.480000
x 49 19 costo: 5.00, cto: 40.00, dano: 0.200000
x 51 32 costo: 5.00, cto: 41.00, dano: 0.000000
x 53 28 costo: 2.00, cto: 39.00, dano: 0.120000
x 59 99 costo: 1.00, cto: 38.00, dano: 0.000000
x 62 88 costo: 2.00, cto: 39.00, dano: 0.100000
x 69  0 costo: 3.00, cto: 40.00, dano: 0.000000
x 77 51 costo: 4.00, cto: 40.00, dano: 0.000000
x 87 97 costo: 1.00, cto: 38.00, dano: 0.000000
x 88 31 costo: 2.00, cto: 39.00, dano: 0.080000
x 92 93 costo: 1.00, cto: 38.00, dano: 0.000000
x 93 94 costo: 2.00, cto: 39.00, dano: 0.000000
x 94 53 costo: 3.00, cto: 40.00, dano: 0.000000
x 95 98 costo: 2.00, cto: 39.00, dano: 0.000000
x 97 59 costo: 2.00, cto: 39.00, dano: 0.080000
x 98 92 costo: 2.00, cto: 38.00, dano: 0.120000
x 99 95 costo: 1.00, cto: 39.00, dano: 0.000000
x  0 87 costo: 5.00, cto: 41.00, dano: 0.000000
x  5 60 costo: 2.00, cto: 38.00, dano: 0.160000
x 14 38 costo: 4.00, cto: 40.00, dano: 0.180000
x 15 74 costo: 7.00, cto: 41.00, dano: 0.280000
x 22 41 costo: 1.00, cto: 42.00, dano: 0.000000
x 23 67 costo: 3.00, cto: 40.00, dano: 0.000000
x 24 80 costo: 3.00, cto: 39.00, dano: 0.150000
x 29 24 costo: 2.00, cto: 39.00, dano: 0.120000
x 38 15 costo: 9.00, cto: 46.00, dano: 0.000000
x 39 29 costo: 9.00, cto: 43.00, dano: 0.000000
x 41 56 costo: 3.00, cto: 40.00, dano: 0.000000
x 44 86 costo: 3.00, cto: 39.00, dano: 0.130000
x 56 75 costo: 1.00, cto: 42.00, dano: 0.000000
x 60 85 costo: 4.00, cto: 40.00, dano: 0.000000
x 67 39 costo: 2.00, cto: 39.00, dano: 0.000000
x 74 22 costo: 1.00, cto: 38.00, dano: 0.000000
x 75 23 costo: 4.00, cto: 39.00, dano: 0.130000
x 80  0 costo: 7.00, cto: 42.00, dano: 0.000000
x 85 91 costo: 1.00, cto: 38.00, dano: 0.000000
x 86 100 costo: 4.00, cto: 40.00, dano: 0.000000
x 91 44 costo: 4.00, cto: 39.00, dano: 0.370000
x 100 14 costo: 4.00, cto: 39.00, dano: 0.310000
x  0  5 costo: 6.00, cto: 41.00, dano: 0.000000
